300 300 0 81625 81625
300 300 1 81625 81625
300 600 2 81625 117561
300 900 3 81625 133727
300 1200 4 81625 138731
300 1500 5 81625 146365
300 1800 6 81625 152251
300 2100 7 81625 153755
300 2400 8 81625 154965
300 2700 9 81625 155318
300 3000 10 81625 157039
300 3300 11 81625 158901
300 3600 12 81625 159414
